25855.7
0 97 80 12 62 27 66 94 85 45 41 68 93 90 67 73 26 65 51 91 63 13 64 55 53 92 99 4 71 72 37 3 1 86 21 14 96 28 30 5 49 75 18 11 54 16 89 88 19 2 22 34 42 60 52 77 40 46 48 57 78 8 25 81 47 61 20 76 84 10 43 6 56 33 7 24 79 44 50 39 69 29 87 98 35 17 59 70 95 74 58 83 9 23 15 36 38 32 82 31 
